sat

(objectives
 ((bvadd PriceProv11 (bvadd PriceProv10 (bvadd PriceProv9 (bvadd PriceProv8 (bvadd PriceProv7 (bvadd PriceProv6 (bvadd PriceProv5 (bvadd PriceProv4 (bvadd PriceProv3 (bvadd PriceProv1 PriceProv2)))))))))) (_ bv54912 32))
)
;; statistics
(
 :cnf-variables 2502
 :cnf-literals 8253
 :cnf-clauses 3656
 :sat-checks 9
 :sat-restarts 77
 :sat-decisions 376246
 :sat-random-decisions 222
 :sat-propagations 5196990829
 :sat-theory-propagations 1
 :sat-watched-clauses-visited 5825690082
 :sat-binary-watched-clauses-visited 3503128910
 :sat-conflicts 199362
 :sat-theory-conflicts 0
 :theory-necessary-interface-equalities 0
 :theory-extra-interface-equalities 0
 :euf-total-calls 393731
 :euf-complete-calls 6
 :euf-conflicts 0
 :euf-implications 1
 :euf-explanations 1
 :euf-egraph-nodes-created 151564
 :euf-egraph-nodes-deleted 145002
 :euf-num-asserted-equalities 18745732
 :euf-num-asserted-inequalities 9372692
 :euf-num-merges 39127056
 :euf-num-merges-undone 39127056
 :euf-num-atoms-retold 35008
 :la-total-calls 393731
 :la-complete-calls 6
 :la-conflicts 0
 :la-implications 0
 :la-explanations 0
 :la-num-equalities-split 0
 :la-num-tableau-rows 0
 :la-num-tableau-variables 0
 :bv-total-calls 393731
 :bv-complete-calls 6
 :bv-conflicts 0
 :bv-implications 0
 :bv-explanations 0
 :fp-total-calls 393731
 :fp-complete-calls 6
 :fp-conflicts 0
 :fp-implications 0
 :fp-explanations 0
 :arr-total-calls 393731
 :arr-complete-calls 6
 :arr-conflicts 0
 :arr-implications 0
 :arr-explanations 0
 :arr-write-lemmas-added 0
 :arr-row-lemmas-added 0
 :arr-ext-lemmas-added 0
 :arr-const-lemmas-added 0
 :na-total-calls 393731
 :na-complete-calls 6
 :na-conflicts 0
 :na-implications 0
 :na-explanations 0
 :na-num_nonlinear_multiplications 0
 :na-num_axiom_checks 0
 :na-num_zero_lemmas 0
 :na-num_sign_lemmas 0
 :na-num_neutral_lemmas 0
 :na-num_proportionality_lemmas 0
 :na-num_bound_lemmas 0
 :na-num_tangent_lemmas 0
 :na-num_monotonicity_lemmas 0
 :na-num_sat_checks 0
 :na-axiom_check_time 0.000
 :na-sat_check_time 0.000
 :time-seconds 770.994
 :memory-mb 225.368
)
